1392.39
0 20 8 12 13 14 7 9 6 5 11 15 4 3 10 2 1 0
0 16 17 23 26 21 19 25 30 33 27 22 24 28 34 31 35 32 36 29 47 82 0
0 37 38 39 42 41 44 49 46 48 50 51 45 43 40 52 79 0
0 57 59 61 64 62 65 66 63 60 58 56 55 54 53 67 0
0 70 69 75 72 73 77 74 80 71 78 76 68 113 83 81 0
0 106 98 97 94 90 84 88 101 99 100 96 93 87 92 85 89 91 86 0
0 117 18 114 108 118 109 110 115 116 103 120 119 112 111 104 107 105 95 102 0
